SPARKNaCl/why3-z3/sparknacl.adb_926_12_predicate_check14_2.smt2
;; produced by z3_gnatprove.drv ;;
(set-info :smt-lib-version 2.5)
(set-info :source |VC generated by SPARK 2014|)
(set-info :category industrial)
(set-info :status unknown)
;;; generated by SMT-LIB2 driver
;;; SMT-LIB2 driver: bit-vectors, common part
;;; SMT-LIB2: integer arithmetic
(define-fun __cdiv ((x Int) (y Int)) Int (ite (>= x 0) (div x y) (- (div (- x) y))))
(define-fun __cmod ((x Int) (y Int)) Int (ite (>= x 0) (mod x y) (- (mod (- x) y))))
(declare-datatypes ()
  ((int__ref (int__refqtmk (int__content Int)))))

(declare-sort gf16_normal_limb 0)

;; "to_rep"
(declare-fun to_rep (gf16_normal_limb) (_ BitVec 16))

;; "of_rep"
(declare-fun of_rep ((_ BitVec 16)) gf16_normal_limb)

;; "inversion_axiom"
(assert
  (forall ((x gf16_normal_limb))
    (! (= (of_rep (to_rep x)) x) :pattern ((to_rep x)) )))

;; "range_axiom"
(assert true)

;; "coerce_axiom"
(assert
  (forall ((x (_ BitVec 16)))
    (! (= (to_rep (of_rep x)) x) :pattern ((to_rep (of_rep x))) )))

(declare-sort map1 0)

;; "has_bounds"
(declare-fun has_bounds (map1
  Int
  Int) Bool)

;; "get"
(declare-fun get (map1
  Int) gf16_normal_limb)

(declare-const a map1)

(declare-sort gf64_natural_limb 0)

;; "gf64_natural_limb'int"
(declare-fun gf64_natural_limbqtint (gf64_natural_limb) Int)

;; "gf64_natural_limb'axiom"
(assert
  (forall ((i gf64_natural_limb))
    (and
      (<= 0 (gf64_natural_limbqtint i))
      (<= (gf64_natural_limbqtint i) 2452351484475))))

;; "in_range"
(define-fun in_range ((x Int)) Bool
  (and (<= 0 x) (<= x 2452351484475)))

;; "to_rep"
(define-fun to_rep1 ((x gf64_natural_limb)) Int
  (gf64_natural_limbqtint x))

;; "of_rep"
(declare-fun of_rep1 (Int) gf64_natural_limb)

;; "inversion_axiom"
(assert
  (forall ((x gf64_natural_limb))
    (! (= (of_rep1 (to_rep1 x)) x) :pattern ((to_rep1 x)) )))

;; "range_axiom"
(assert
  (forall ((x gf64_natural_limb))
    (! (in_range (to_rep1 x)) :pattern ((to_rep1 x)) )))

;; "coerce_axiom"
(assert
  (forall ((x Int))
    (! (=> (in_range x) (= (to_rep1 (of_rep1 x)) x)) :pattern ((to_rep1
                                                                 (of_rep1 x))) )))

(declare-sort map2 0)

(declare-datatypes ()
  ((map__ref (map__refqtmk (map__content map2)))))

;; "has_bounds"
(declare-fun has_bounds1 (map2
  Int
  Int) Bool)

;; "get"
(declare-fun get1 (map2
  Int) gf64_natural_limb)

(declare-const l0 (_ BitVec 32))

(declare-const l1 (_ BitVec 32))

(declare-const l2 (_ BitVec 32))

(declare-const l3 (_ BitVec 32))

(declare-const l4 (_ BitVec 32))

(declare-const l5 (_ BitVec 32))

(declare-const l6 (_ BitVec 32))

(declare-const l7 (_ BitVec 32))

(declare-const l8 (_ BitVec 32))

(declare-const l9 (_ BitVec 32))

(declare-const l10 (_ BitVec 32))

(declare-const l11 (_ BitVec 32))

(declare-const l12 (_ BitVec 32))

(declare-const l13 (_ BitVec 32))

(declare-const l14 (_ BitVec 32))

(declare-const l15 (_ BitVec 32))

;; "in_range"
(define-fun in_range1 ((x (_ BitVec 32))) Bool
  (and (bvule #x00000000 x) (bvule x #x0000FFFF)))

;; "in_range"
(define-fun in_range2 ((x Int)) Bool
  (and (<= 0 x) (<= x 65535)))

;; "dynamic_invariant"
(define-fun dynamic_invariant ((temp___expr_1273 map2) (temp___is_init_1269 Bool) (temp___skip_constant_1270 Bool) (temp___do_toplevel_1271 Bool) (temp___do_typ_inv_1272 Bool)) Bool
  (and
    (=>
      (= temp___is_init_1269 true)
      (=>
        (= temp___do_toplevel_1271 true)
        (and
          (and
            (and
              (and
                (and
                  (and
                    (and
                      (and
                        (and
                          (and
                            (and
                              (and
                                (and
                                  (and
                                    (and
                                      (and
                                        (<= 0 (to_rep1
                                                (get1 temp___expr_1273 0)))
                                        (<= (to_rep1
                                              (get1 temp___expr_1273 0)) 39912183))
                                      (in_range2
                                        (to_rep1 (get1 temp___expr_1273 1))))
                                    (in_range2
                                      (to_rep1 (get1 temp___expr_1273 2))))
                                  (in_range2
                                    (to_rep1 (get1 temp___expr_1273 3))))
                                (in_range2
                                  (to_rep1 (get1 temp___expr_1273 4))))
                              (in_range2 (to_rep1 (get1 temp___expr_1273 5))))
                            (in_range2 (to_rep1 (get1 temp___expr_1273 6))))
                          (in_range2 (to_rep1 (get1 temp___expr_1273 7))))
                        (in_range2 (to_rep1 (get1 temp___expr_1273 8))))
                      (in_range2 (to_rep1 (get1 temp___expr_1273 9))))
                    (in_range2 (to_rep1 (get1 temp___expr_1273 10))))
                  (in_range2 (to_rep1 (get1 temp___expr_1273 11))))
                (in_range2 (to_rep1 (get1 temp___expr_1273 12))))
              (in_range2 (to_rep1 (get1 temp___expr_1273 13))))
            (in_range2 (to_rep1 (get1 temp___expr_1273 14))))
          (in_range2 (to_rep1 (get1 temp___expr_1273 15))))))
    (has_bounds1 temp___expr_1273 0 15)))

;; "temp_____aggregate_def_2659"
(declare-fun temp_____aggregate_def_2659 (Int) map2)

(declare-const rliteral gf64_natural_limb)

;; "rliteral_axiom"
(assert (= (gf64_natural_limbqtint rliteral) 0))

(declare-const c Int)

(declare-const d map2)

(declare-const d0 Int)

(declare-const d1 Int)

(declare-const d2 Int)

(declare-const d3 Int)

(declare-const d4 Int)

(declare-const d5 Int)

(declare-const d6 Int)

(declare-const d7 Int)

(declare-const d8 Int)

(declare-const d9 Int)

(declare-const d10 Int)

(declare-const d11 Int)

(declare-const d12 Int)

(declare-const d13 Int)

(declare-const d14 Int)

(declare-const d15 Int)

;; "d15'unused"
(define-fun d15qtunused () int__ref
  (int__refqtmk d15))

;; "d14'unused"
(define-fun d14qtunused () int__ref
  (int__refqtmk d14))

;; "d13'unused"
(define-fun d13qtunused () int__ref
  (int__refqtmk d13))

;; "d12'unused"
(define-fun d12qtunused () int__ref
  (int__refqtmk d12))

;; "d11'unused"
(define-fun d11qtunused () int__ref
  (int__refqtmk d11))

;; "d10'unused"
(define-fun d10qtunused () int__ref
  (int__refqtmk d10))

;; "d9'unused"
(define-fun d9qtunused () int__ref
  (int__refqtmk d9))

;; "d8'unused"
(define-fun d8qtunused () int__ref
  (int__refqtmk d8))

;; "d7'unused"
(define-fun d7qtunused () int__ref
  (int__refqtmk d7))

;; "d6'unused"
(define-fun d6qtunused () int__ref
  (int__refqtmk d6))

;; "d5'unused"
(define-fun d5qtunused () int__ref
  (int__refqtmk d5))

;; "d4'unused"
(define-fun d4qtunused () int__ref
  (int__refqtmk d4))

;; "d3'unused"
(define-fun d3qtunused () int__ref
  (int__refqtmk d3))

;; "d2'unused"
(define-fun d2qtunused () int__ref
  (int__refqtmk d2))

;; "d1'unused"
(define-fun d1qtunused () int__ref
  (int__refqtmk d1))

;; "d0'unused"
(define-fun d0qtunused () int__ref
  (int__refqtmk d0))

;; "d'unused"
(define-fun dqtunused () map__ref
  (map__refqtmk d))

;; "c'unused"
(define-fun cqtunused () int__ref
  (int__refqtmk c))

;; "Assume"
(assert (has_bounds a 0 15))

;; "o"
(define-fun o () gf16_normal_limb
  (get a 0))

;; "get'result'unused"
(define-fun getqtresultqtunused () gf16_normal_limb
  o)

(declare-const o1 (_ BitVec 16))

;; "Ensures"
(assert (= (to_rep o) o1))

;; "to_rep'result'unused"
(define-fun to_repqtresultqtunused () (_ BitVec 16)
  o1)

;; "sparknacl__square__l0__assume"
(define-fun sparknacl__square__l0__assume () (_ BitVec 32)
  ((_ zero_extend 16) o1))

;; "toBig'result'unused"
(define-fun toBigqtresultqtunused () (_ BitVec 32)
  sparknacl__square__l0__assume)

;; "Assume"
(assert (= sparknacl__square__l0__assume l0))

;; "Assume"
(assert (in_range1 l0))

;; "o"
(define-fun o2 () gf16_normal_limb
  (get a 1))

;; "get'result'unused"
(define-fun getqtresultqtunused1 () gf16_normal_limb
  o2)

(declare-const o3 (_ BitVec 16))

;; "Ensures"
(assert (= (to_rep o2) o3))

;; "to_rep'result'unused"
(define-fun to_repqtresultqtunused1 () (_ BitVec 16)
  o3)

;; "sparknacl__square__l1__assume"
(define-fun sparknacl__square__l1__assume () (_ BitVec 32)
  ((_ zero_extend 16) o3))

;; "toBig'result'unused"
(define-fun toBigqtresultqtunused1 () (_ BitVec 32)
  sparknacl__square__l1__assume)

;; "Assume"
(assert (= sparknacl__square__l1__assume l1))

;; "Assume"
(assert (in_range1 l1))

;; "o"
(define-fun o4 () gf16_normal_limb
  (get a 2))

;; "get'result'unused"
(define-fun getqtresultqtunused2 () gf16_normal_limb
  o4)

(declare-const o5 (_ BitVec 16))

;; "Ensures"
(assert (= (to_rep o4) o5))

;; "to_rep'result'unused"
(define-fun to_repqtresultqtunused2 () (_ BitVec 16)
  o5)

;; "sparknacl__square__l2__assume"
(define-fun sparknacl__square__l2__assume () (_ BitVec 32)
  ((_ zero_extend 16) o5))

;; "toBig'result'unused"
(define-fun toBigqtresultqtunused2 () (_ BitVec 32)
  sparknacl__square__l2__assume)

;; "Assume"
(assert (= sparknacl__square__l2__assume l2))

;; "Assume"
(assert (in_range1 l2))

;; "o"
(define-fun o6 () gf16_normal_limb
  (get a 3))

;; "get'result'unused"
(define-fun getqtresultqtunused3 () gf16_normal_limb
  o6)

(declare-const o7 (_ BitVec 16))

;; "Ensures"
(assert (= (to_rep o6) o7))

;; "to_rep'result'unused"
(define-fun to_repqtresultqtunused3 () (_ BitVec 16)
  o7)

;; "sparknacl__square__l3__assume"
(define-fun sparknacl__square__l3__assume () (_ BitVec 32)
  ((_ zero_extend 16) o7))

;; "toBig'result'unused"
(define-fun toBigqtresultqtunused3 () (_ BitVec 32)
  sparknacl__square__l3__assume)

;; "Assume"
(assert (= sparknacl__square__l3__assume l3))

;; "Assume"
(assert (in_range1 l3))

;; "o"
(define-fun o8 () gf16_normal_limb
  (get a 4))

;; "get'result'unused"
(define-fun getqtresultqtunused4 () gf16_normal_limb
  o8)

(declare-const o9 (_ BitVec 16))

;; "Ensures"
(assert (= (to_rep o8) o9))

;; "to_rep'result'unused"
(define-fun to_repqtresultqtunused4 () (_ BitVec 16)
  o9)

;; "sparknacl__square__l4__assume"
(define-fun sparknacl__square__l4__assume () (_ BitVec 32)
  ((_ zero_extend 16) o9))

;; "toBig'result'unused"
(define-fun toBigqtresultqtunused4 () (_ BitVec 32)
  sparknacl__square__l4__assume)

;; "Assume"
(assert (= sparknacl__square__l4__assume l4))

;; "Assume"
(assert (in_range1 l4))

;; "o"
(define-fun o10 () gf16_normal_limb
  (get a 5))

;; "get'result'unused"
(define-fun getqtresultqtunused5 () gf16_normal_limb
  o10)

(declare-const o11 (_ BitVec 16))

;; "Ensures"
(assert (= (to_rep o10) o11))

;; "to_rep'result'unused"
(define-fun to_repqtresultqtunused5 () (_ BitVec 16)
  o11)

;; "sparknacl__square__l5__assume"
(define-fun sparknacl__square__l5__assume () (_ BitVec 32)
  ((_ zero_extend 16) o11))

;; "toBig'result'unused"
(define-fun toBigqtresultqtunused5 () (_ BitVec 32)
  sparknacl__square__l5__assume)

;; "Assume"
(assert (= sparknacl__square__l5__assume l5))

;; "Assume"
(assert (in_range1 l5))

;; "o"
(define-fun o12 () gf16_normal_limb
  (get a 6))

;; "get'result'unused"
(define-fun getqtresultqtunused6 () gf16_normal_limb
  o12)

(declare-const o13 (_ BitVec 16))

;; "Ensures"
(assert (= (to_rep o12) o13))

;; "to_rep'result'unused"
(define-fun to_repqtresultqtunused6 () (_ BitVec 16)
  o13)

;; "sparknacl__square__l6__assume"
(define-fun sparknacl__square__l6__assume () (_ BitVec 32)
  ((_ zero_extend 16) o13))

;; "toBig'result'unused"
(define-fun toBigqtresultqtunused6 () (_ BitVec 32)
  sparknacl__square__l6__assume)

;; "Assume"
(assert (= sparknacl__square__l6__assume l6))

;; "Assume"
(assert (in_range1 l6))

;; "o"
(define-fun o14 () gf16_normal_limb
  (get a 7))

;; "get'result'unused"
(define-fun getqtresultqtunused7 () gf16_normal_limb
  o14)

(declare-const o15 (_ BitVec 16))

;; "Ensures"
(assert (= (to_rep o14) o15))

;; "to_rep'result'unused"
(define-fun to_repqtresultqtunused7 () (_ BitVec 16)
  o15)

;; "sparknacl__square__l7__assume"
(define-fun sparknacl__square__l7__assume () (_ BitVec 32)
  ((_ zero_extend 16) o15))

;; "toBig'result'unused"
(define-fun toBigqtresultqtunused7 () (_ BitVec 32)
  sparknacl__square__l7__assume)

;; "Assume"
(assert (= sparknacl__square__l7__assume l7))

;; "Assume"
(assert (in_range1 l7))

;; "o"
(define-fun o16 () gf16_normal_limb
  (get a 8))

;; "get'result'unused"
(define-fun getqtresultqtunused8 () gf16_normal_limb
  o16)

(declare-const o17 (_ BitVec 16))

;; "Ensures"
(assert (= (to_rep o16) o17))

;; "to_rep'result'unused"
(define-fun to_repqtresultqtunused8 () (_ BitVec 16)
  o17)

;; "sparknacl__square__l8__assume"
(define-fun sparknacl__square__l8__assume () (_ BitVec 32)
  ((_ zero_extend 16) o17))

;; "toBig'result'unused"
(define-fun toBigqtresultqtunused8 () (_ BitVec 32)
  sparknacl__square__l8__assume)

;; "Assume"
(assert (= sparknacl__square__l8__assume l8))

;; "Assume"
(assert (in_range1 l8))

;; "o"
(define-fun o18 () gf16_normal_limb
  (get a 9))

;; "get'result'unused"
(define-fun getqtresultqtunused9 () gf16_normal_limb
  o18)

(declare-const o19 (_ BitVec 16))

;; "Ensures"
(assert (= (to_rep o18) o19))

;; "to_rep'result'unused"
(define-fun to_repqtresultqtunused9 () (_ BitVec 16)
  o19)

;; "sparknacl__square__l9__assume"
(define-fun sparknacl__square__l9__assume () (_ BitVec 32)
  ((_ zero_extend 16) o19))

;; "toBig'result'unused"
(define-fun toBigqtresultqtunused9 () (_ BitVec 32)
  sparknacl__square__l9__assume)

;; "Assume"
(assert (= sparknacl__square__l9__assume l9))

;; "Assume"
(assert (in_range1 l9))

;; "o"
(define-fun o20 () gf16_normal_limb
  (get a 10))

;; "get'result'unused"
(define-fun getqtresultqtunused10 () gf16_normal_limb
  o20)

(declare-const o21 (_ BitVec 16))

;; "Ensures"
(assert (= (to_rep o20) o21))

;; "to_rep'result'unused"
(define-fun to_repqtresultqtunused10 () (_ BitVec 16)
  o21)

;; "sparknacl__square__l10__assume"
(define-fun sparknacl__square__l10__assume () (_ BitVec 32)
  ((_ zero_extend 16) o21))

;; "toBig'result'unused"
(define-fun toBigqtresultqtunused10 () (_ BitVec 32)
  sparknacl__square__l10__assume)

;; "Assume"
(assert (= sparknacl__square__l10__assume l10))

;; "Assume"
(assert (in_range1 l10))

;; "o"
(define-fun o22 () gf16_normal_limb
  (get a 11))

;; "get'result'unused"
(define-fun getqtresultqtunused11 () gf16_normal_limb
  o22)

(declare-const o23 (_ BitVec 16))

;; "Ensures"
(assert (= (to_rep o22) o23))

;; "to_rep'result'unused"
(define-fun to_repqtresultqtunused11 () (_ BitVec 16)
  o23)

;; "sparknacl__square__l11__assume"
(define-fun sparknacl__square__l11__assume () (_ BitVec 32)
  ((_ zero_extend 16) o23))

;; "toBig'result'unused"
(define-fun toBigqtresultqtunused11 () (_ BitVec 32)
  sparknacl__square__l11__assume)

;; "Assume"
(assert (= sparknacl__square__l11__assume l11))

;; "Assume"
(assert (in_range1 l11))

;; "o"
(define-fun o24 () gf16_normal_limb
  (get a 12))

;; "get'result'unused"
(define-fun getqtresultqtunused12 () gf16_normal_limb
  o24)

(declare-const o25 (_ BitVec 16))

;; "Ensures"
(assert (= (to_rep o24) o25))

;; "to_rep'result'unused"
(define-fun to_repqtresultqtunused12 () (_ BitVec 16)
  o25)

;; "sparknacl__square__l12__assume"
(define-fun sparknacl__square__l12__assume () (_ BitVec 32)
  ((_ zero_extend 16) o25))

;; "toBig'result'unused"
(define-fun toBigqtresultqtunused12 () (_ BitVec 32)
  sparknacl__square__l12__assume)

;; "Assume"
(assert (= sparknacl__square__l12__assume l12))

;; "Assume"
(assert (in_range1 l12))

;; "o"
(define-fun o26 () gf16_normal_limb
  (get a 13))

;; "get'result'unused"
(define-fun getqtresultqtunused13 () gf16_normal_limb
  o26)

(declare-const o27 (_ BitVec 16))

;; "Ensures"
(assert (= (to_rep o26) o27))

;; "to_rep'result'unused"
(define-fun to_repqtresultqtunused13 () (_ BitVec 16)
  o27)

;; "sparknacl__square__l13__assume"
(define-fun sparknacl__square__l13__assume () (_ BitVec 32)
  ((_ zero_extend 16) o27))

;; "toBig'result'unused"
(define-fun toBigqtresultqtunused13 () (_ BitVec 32)
  sparknacl__square__l13__assume)

;; "Assume"
(assert (= sparknacl__square__l13__assume l13))

;; "Assume"
(assert (in_range1 l13))

;; "o"
(define-fun o28 () gf16_normal_limb
  (get a 14))

;; "get'result'unused"
(define-fun getqtresultqtunused14 () gf16_normal_limb
  o28)

(declare-const o29 (_ BitVec 16))

;; "Ensures"
(assert (= (to_rep o28) o29))

;; "to_rep'result'unused"
(define-fun to_repqtresultqtunused14 () (_ BitVec 16)
  o29)

;; "sparknacl__square__l14__assume"
(define-fun sparknacl__square__l14__assume () (_ BitVec 32)
  ((_ zero_extend 16) o29))

;; "toBig'result'unused"
(define-fun toBigqtresultqtunused14 () (_ BitVec 32)
  sparknacl__square__l14__assume)

;; "Assume"
(assert (= sparknacl__square__l14__assume l14))

;; "Assume"
(assert (in_range1 l14))

;; "o"
(define-fun o30 () gf16_normal_limb
  (get a 15))

;; "get'result'unused"
(define-fun getqtresultqtunused15 () gf16_normal_limb
  o30)

(declare-const o31 (_ BitVec 16))

;; "Ensures"
(assert (= (to_rep o30) o31))

;; "to_rep'result'unused"
(define-fun to_repqtresultqtunused15 () (_ BitVec 16)
  o31)

;; "sparknacl__square__l15__assume"
(define-fun sparknacl__square__l15__assume () (_ BitVec 32)
  ((_ zero_extend 16) o31))

;; "toBig'result'unused"
(define-fun toBigqtresultqtunused15 () (_ BitVec 32)
  sparknacl__square__l15__assume)

;; "Assume"
(assert (= sparknacl__square__l15__assume l15))

;; "Assume"
(assert (in_range1 l15))

;; "Assume"
(assert true)

;; "Assume"
(assert (in_range c))

;; "Assume"
(assert true)

;; "Assume"
(assert (dynamic_invariant d false false true true))

(declare-const temp___2663 map2)

;; "H"
(assert (has_bounds1 temp___2663 0 15))

;; "H"
(assert
  (forall ((temp___2662 Int))
    (! (=>
         (and (<= 0 temp___2662) (<= temp___2662 15))
         (= (get1 temp___2663 temp___2662) rliteral)) :pattern ((get1
                                                                  temp___2663
                                                                  temp___2662)) )))

;; "H"
(assert (= temp___2663 (temp_____aggregate_def_2659 0)))

;; "temp_____aggregate_def_2659'result'unused"
(define-fun temp_____aggregate_def_2659qtresultqtunused () map2
  temp___2663)

;; Goal "def'vc"
;; File "sparknacl.ads", line 462, characters 0-0
(assert
  (not (<= 0 (to_rep1 (get1 temp___2663 11)))))

(check-sat)
